
Gurobi 10.0.0 (win64, C++) logging started Sat Dec  2 08:50:06 2023

Set parameter TokenServer to value "141.30.89.215"
Warning: Gurobi version mismatch between C++ 10.0.3 and C library 10.0.0
Set parameter Threads to value 8
Set parameter LazyConstraints to value 1
Set parameter PreCrush to value 1
Set parameter TimeLimit to value 28800
Set parameter SolutionLimit to value 10000
Gurobi Optimizer version 10.0.0 build v10.0.0rc2 (win64)

CPU model: AMD EPYC 7513 32-Core Processor, instruction set [SSE2|AVX|AVX2]
Thread count: 16 physical cores, 16 logical processors, using up to 8 threads

Optimize a model with 233 rows, 441 columns and 1262 nonzeros
Model fingerprint: 0x9ddd690b
Variable types: 0 continuous, 441 integer (441 binary)
Coefficient statistics:
  Matrix range     [1e+00, 1e+00]
  Objective range  [6e+00, 6e+01]
  Bounds range     [1e+00, 1e+00]
  RHS range        [1e+00, 6e+00]

User MIP start produced solution with objective 493.362 (0.00s)
Loaded user MIP start with objective 493.362

Presolve removed 9 rows and 35 columns
Presolve time: 0.00s
Presolved: 224 rows, 406 columns, 1159 nonzeros
Variable types: 0 continuous, 406 integer (406 binary)

Root relaxation: objective 3.490889e+02, 74 iterations, 0.00 seconds (0.00 work units)

    Nodes    |    Current Node    |     Objective Bounds      |     Work
 Expl Unexpl |  Obj  Depth IntInf | Incumbent    BestBd   Gap | It/Node Time

     0     0  349.08891    0    -  493.36173  349.08891  29.2%     -    0s
     0     0  361.48864    0    -  493.36173  361.48864  26.7%     -    0s
     0     0  363.62120    0    -  493.36173  363.62120  26.3%     -    0s
     0     0  371.76545    0   16  493.36173  371.76545  24.6%     -    0s
     0     0  392.57821    0   16  493.36173  392.57821  20.4%     -    0s
     0     0  402.11743    0   32  493.36173  402.11743  18.5%     -    0s
     0     0  409.37118    0   36  493.36173  409.37118  17.0%     -    0s
     0     0  415.02074    0   45  493.36173  415.02074  15.9%     -    0s
     0     0  419.82312    0   57  493.36173  419.82312  14.9%     -    0s
     0     0  421.13252    0   60  493.36173  421.13252  14.6%     -    0s
     0     0  422.42660    0   63  493.36173  422.42660  14.4%     -    0s
     0     0  422.97013    0   65  493.36173  422.97013  14.3%     -    0s
     0     0  423.79309    0   60  493.36173  423.79309  14.1%     -    0s
     0     0  424.38723    0   68  493.36173  424.38723  14.0%     -    0s
     0     0  424.53762    0   64  493.36173  424.53762  14.0%     -    0s
     0     0  424.65384    0   68  493.36173  424.65384  13.9%     -    0s
     0     0  424.72223    0   67  493.36173  424.72223  13.9%     -    0s
     0     0  424.72223    0   55  493.36173  424.72223  13.9%     -    0s
     0     2  424.79791    0   36  493.36173  424.79791  13.9%     -    1s
H   12    16                     454.4246197  427.15166  6.00%  39.7    1s
   142   153  433.20845   16   58  454.42462  427.15166  6.00%  20.8    5s
*  161   153              13     430.8846754  427.15166  0.87%  20.7    5s

Cutting planes:
  User: 133
  Lazy constraints: 87

Explored 381 nodes (5309 simplex iterations) in 6.16 seconds (0.29 work units)
Thread count was 8 (of 16 available processors)

Solution count 3: 430.885 454.425 493.362 

Optimal solution found (tolerance 1.00e-04)
Best objective 4.308846754242e+02, best bound 4.308846754242e+02, gap 0.0000%

User-callback calls 1113, time in user-callback 5.79 sec
### START EXACT APPROACH ###
ProblemVariant: 2
### START PREPROCESSING ###
## Start infeasible path procedure ## 
Deleted arcs: 14
Infeasible tail paths: 1
Infeasible 2-node combinations: 7
## Start extended infeasible path procedure ##
Deleted arcs: 14
Infeasible tail paths: 1
Infeasible 2-node combinations: 7
## Start start solution procedure ##
Start solution with 6 Vehicles and total costs 493.362 in 0.0082753 s.
### END PREPROCESSING ###
Route 0 0-2-1-0 : weight util 0.827586 | volume util 0.277467 | feasible with packing heuristic | feasible with CP model
Route 1 0-6-19-11-20-5-0 : weight util 1.000000 | volume util 0.541422 | infeasible with packing heuristic | feasible with CP model
Route 2 0-7-9-3-4-0 : weight util 0.965517 | volume util 0.385956 | feasible with packing heuristic | feasible with CP model
Route 3 0-13-14-15-0 : weight util 0.931034 | volume util 0.663778 | feasible with packing heuristic | feasible with CP model
Route 4 0-16-18-10-12-0 : weight util 0.982759 | volume util 0.250267 | feasible with packing heuristic | feasible with CP model
Route 5 0-17-8-0 : weight util 0.965517 | volume util 0.092444 | feasible with packing heuristic | feasible with CP model
